c status 106 1469274320839
c status 74 1469274320842
c status 70 1469274320888
c status 69 1469274321428
c status 68 1469274324165
c status 67 1469274336672
s td 41 67 144
b 1 4 16 28 121 133 40 97 6 109 33 18 41 11 26 1
b 2 16 28 121 133 40 97 20 6 109 27 33 42 18 19 41 11 26 1
b 3 28 121 133 40 97 20 34 6 109 27 29 33 42 43 18 19 41 11 26 1
b 4 121 133 40 97 20 34 9 6 109 27 29 46 31 33 42 43 18 19 38 126 122 41 11 141 15 23 137 26 1
b 5 133 40 97 20 34 9 6 109 27 29 46 48 32 31 33 42 43 18 19 39 24 38 126 17 122 41 11 142 141 138 15 23 10 137 26 1
b 6 7 21 50 35 22 97 20 9 108 132 135 6 119 136 13 18 19 38 95 105 8 12 17 122 11 15 10 85
b 7 21 50 35 22 97 20 34 9 108 132 135 6 119 136 96 27 29 32 31 33 13 18 19 24 38 30 95 105 110 8 12 17 122 124 11 15 23 37 10 137 26 85
b 8 49 50 35 22 40 20 34 9 132 6 104 118 51 125 111 98 138 73 1
b 9 50 35 22 40 97 20 34 9 108 132 135 6 119 104 118 51 136 125 96 27 29 32 31 33 13 18 19 24 38 30 95 139 105 111 110 126 8 12 17 122 124 113 98 99 11 138 15 23 37 10 137 26 2 73 85 1
b 10 35 22 40 97 20 34 9 108 132 135 6 119 104 118 51 136 125 96 27 29 46 48 32 31 33 42 43 44 13 18 19 39 24 38 45 30 95 139 105 111 110 126 8 12 17 122 124 41 113 98 99 11 138 15 23 37 10 137 26 2 73 85 1
b 11 22 40 97 20 34 9 108 132 135 6 119 104 118 51 109 136 125 96 27 29 46 48 32 31 33 42 43 44 13 18 19 39 24 38 45 30 95 139 106 105 120 111 110 126 92 8 12 17 122 124 41 113 98 99 11 138 15 23 37 10 137 26 2 73 85 1
b 12 40 97 20 34 9 108 132 135 6 119 104 118 51 109 136 125 96 27 29 46 48 32 31 33 42 43 44 13 18 19 39 24 38 45 30 95 139 106 105 120 111 110 126 92 8 12 17 122 124 41 113 98 99 11 142 141 138 15 23 37 10 137 26 2 73 85 1
b 13 97 20 34 9 108 132 135 6 119 104 118 51 109 136 125 96 27 29 46 48 32 31 33 42 43 44 13 18 19 39 24 38 45 30 95 139 106 105 120 111 110 126 92 8 12 17 122 124 41 113 98 99 11 142 141 138 15 107 23 37 10 137 26 2 73 85 1
b 14 117 116 5 114 143 130 131 115 103 102 108 104 29 48 33 42 19 106 105 111 110 113 15 107 2 61
b 15 144 116 5 114 143 130 131 129 102 140 132 135 136 46 32 43 18 19 30 139 17 98 142 141 138 137 25
b 16 116 5 114 143 130 131 115 129 103 102 140 100 108 132 135 104 136 27 29 46 48 32 33 42 43 13 18 19 30 139 106 105 111 110 17 41 113 98 142 141 138 15 107 137 2 25 61
b 17 5 114 143 130 131 115 129 103 102 140 100 108 132 135 104 136 27 29 46 48 32 31 33 42 43 44 13 18 19 30 139 106 105 111 110 17 41 113 98 99 142 141 138 15 107 137 2 25 61
b 18 127 128 114 130 131 129 140 100 119 118 51 125 29 48 32 43 13 24 38 95 120 111 126 17 122 124 113 98 11 142 141 25
b 19 128 114 143 130 131 115 129 102 140 100 119 118 51 125 96 29 48 32 33 43 44 13 18 39 24 38 30 95 120 111 126 12 17 122 124 113 98 99 11 142 141 15 26 25 61
b 20 114 143 130 131 115 129 103 102 140 100 108 132 135 119 104 118 51 136 125 96 27 29 46 48 32 31 33 42 43 44 13 18 19 39 24 38 30 95 139 106 105 120 111 110 126 12 17 122 124 41 113 98 99 11 142 141 138 15 107 137 26 2 25 61
b 21 143 130 131 115 129 103 102 140 100 108 132 135 119 104 118 51 136 125 96 27 29 46 48 32 31 33 42 43 44 13 18 19 39 24 38 45 30 95 139 106 105 120 111 110 126 12 17 122 124 41 113 98 99 11 142 141 138 15 107 137 26 2 25 61
b 22 93 94 103 102 140 100 9 108 132 119 125 96 13 38 45 30 95 106 92 122 98 99 107 23 137 73 85
b 23 94 103 102 140 100 9 108 132 135 6 119 125 96 46 31 13 39 24 38 45 30 95 106 120 110 126 92 122 124 98 99 141 138 15 107 23 10 137 73 85
b 24 103 102 140 100 9 108 132 135 6 119 104 118 51 136 125 96 27 29 46 48 32 31 33 42 43 44 13 18 19 39 24 38 45 30 95 139 106 105 120 111 110 126 92 12 17 122 124 41 113 98 99 11 142 141 138 15 107 23 10 137 26 2 25 61 73 85
b 25 140 100 9 108 132 135 6 119 104 118 51 109 136 125 96 27 29 46 48 32 31 33 42 43 44 13 18 19 39 24 38 45 30 95 139 106 105 120 111 110 126 92 12 17 122 124 41 113 98 99 11 142 141 138 15 107 23 10 137 26 2 25 61 73 85
b 26 9 108 132 135 6 119 104 118 51 109 136 125 96 27 29 46 48 32 31 33 42 43 44 13 18 19 39 24 38 45 30 95 139 106 105 120 111 110 126 92 8 12 17 122 124 41 113 98 99 11 142 141 138 15 107 23 37 10 137 26 2 25 61 73 85 1
b 27 3 134 60 62 112 101 123 91 76 87 74 57 68 79 90
b 28 134 60 62 112 101 59 123 91 89 72 75 76 87 74 57 68 79 90 86
b 29 55 56 58 60 62 101 59 71 87 14 36 54 47 52 53 79 90 82 70 69 84
b 30 56 58 60 62 112 101 59 71 72 87 88 14 36 54 47 52 53 79 90 86 82 70 69 83 84
b 31 58 60 62 112 101 59 123 89 71 72 87 74 88 14 36 54 47 52 53 79 90 86 82 70 69 83 84
b 32 60 62 112 101 59 123 91 89 71 72 75 76 87 74 88 57 68 14 36 54 47 52 53 79 90 86 82 70 69 83 84 25
b 33 62 112 101 59 123 91 89 71 72 75 76 87 74 88 57 68 14 36 54 47 52 53 79 90 86 82 70 69 83 84 25 61
b 34 112 101 59 123 91 89 71 72 75 76 87 74 88 57 68 14 36 54 47 52 53 79 90 86 82 70 69 83 84 25 61 1
b 35 59 123 91 89 71 72 75 76 87 74 88 57 68 14 36 54 47 52 53 79 90 86 82 70 69 83 84 2 25 61 1
b 36 66 67 63 64 81 65 80 71 72 75 76 74 57 47 52 53 79 82 70 69
b 37 67 63 64 81 65 80 71 72 75 76 74 57 68 54 47 52 53 79 90 82 70 69 83
b 38 77 78 63 64 81 80 91 89 87 88 57 14 47 86 82 83 84 61 73 1
b 39 78 63 64 81 65 80 91 89 87 88 57 68 14 36 47 52 86 82 83 84 61 73 1
b 40 63 64 81 65 80 91 89 71 72 75 76 87 74 88 57 68 14 36 54 47 52 53 79 90 86 82 70 69 83 84 25 61 73 1
b 41 91 89 71 72 75 76 87 74 88 57 68 14 36 54 47 52 53 79 90 86 82 70 69 83 84 2 25 61 73 85 1
1 2
2 3
3 4
4 5
5 12
12 13
12 11
13 26
26 25
25 24
11 10
24 21
21 20
10 9
20 17
17 16
20 19
9 7
24 23
19 18
7 6
16 15
23 22
16 14
9 8
26 41
41 35
35 34
34 33
33 32
41 40
32 31
31 30
40 39
40 37
30 29
39 38
37 36
32 28
28 27
